p cnf 134 447
3 1 0
3 2 0
-1 -2 -3 0
5 -4 0
5 1 0
4 -1 -5 0
7 5 0
7 6 0
-5 -6 -7 0
-9 -8 0
-9 1 0
8 -1 9 0
-11 9 0
-11 10 0
-9 -10 11 0
12 7 0
12 11 0
-7 -11 -12 0
-3 -12 -13 0
3 12 -13 0
-3 12 13 0
3 -12 13 0
-14 1 -15 0
14 -1 -15 0
-14 -1 15 0
14 1 15 0
-17 -7 0
-17 16 0
7 -16 17 0
-18 -15 0
-18 17 0
15 -17 18 0
20 1 0
20 19 0
-1 -19 -20 0
-21 6 0
-21 20 0
-6 -20 21 0
-21 10 -22 0
21 -10 -22 0
-21 -10 22 0
21 10 22 0
1 -8 -23 0
-1 8 -23 0
1 8 23 0
-1 -8 23 0
-22 -23 -24 0
22 23 -24 0
-22 23 24 0
22 -23 24 0
25 15 0
25 -24 0
-15 24 -25 0
26 -18 0
26 25 0
18 -25 -26 0
-28 26 0
-28 -27 0
-26 27 28 0
-29 -13 0
-29 28 0
13 -28 29 0
-31 22 0
-31 30 0
-22 -30 31 0
-33 -32 0
-33 4 0
32 -4 33 0
-34 33 0
-34 33 0
-33 34 0
35 -31 0
35 -34 0
31 34 -35 0
36 29 0
36 -35 0
-29 35 -36 0
-8 20 -37 0
8 -20 -37 0
-8 -20 37 0
8 20 37 0
-38 -37 0
-38 -10 0
37 10 38 0
-20 38 -39 0
20 -38 -39 0
-20 -38 39 0
20 38 39 0
-40 -39 0
-40 8 0
39 -8 40 0
-41 -40 0
-41 37 0
40 -37 41 0
-6 42 -43 0
6 -42 -43 0
-6 -42 43 0
6 42 43 0
44 -43 0
44 -19 0
43 19 -44 0
-45 41 0
-45 -44 0
-41 44 45 0
-46 -10 0
-46 45 0
10 -45 46 0
-36 46 -47 0
36 -46 -47 0
-36 -46 47 0
36 46 47 0
-49 48 0
-49 -8 0
-48 8 49 0
50 37 0
50 -49 0
-37 49 -50 0
-5 -50 -51 0
5 50 -51 0
-5 50 51 0
5 -50 51 0
8 25 -52 0
-8 -25 -52 0
8 -25 52 0
-8 25 52 0
-53 16 0
-53 10 0
-16 -10 53 0
-54 -52 0
-54 53 0
52 -53 54 0
-55 -51 0
-55 54 0
51 -54 55 0
30 -20 -56 0
-30 20 -56 0
30 20 56 0
-30 -20 56 0
-57 27 0
-57 23 0
-27 -23 57 0
2 -57 -58 0
-2 57 -58 0
2 57 58 0
-2 -57 58 0
-58 -39 -59 0
58 39 -59 0
-58 39 59 0
58 -39 59 0
-60 56 0
-60 59 0
-56 -59 60 0
-61 -27 0
-61 3 0
27 -3 61 0
-2 -61 -62 0
2 61 -62 0
-2 61 62 0
2 -61 62 0
63 -14 0
63 -2 0
14 2 -63 0
-64 63 0
-64 2 0
-63 -2 64 0
-64 21 -65 0
64 -21 -65 0
-64 -21 65 0
64 21 65 0
66 3 0
66 -27 0
-3 27 -66 0
67 -3 0
67 6 0
3 -6 -67 0
68 -66 0
68 -67 0
66 67 -68 0
-69 65 0
-69 68 0
-65 -68 69 0
70 -2 0
70 1 0
2 -1 -70 0
-71 -33 0
-71 -70 0
33 70 71 0
72 -71 0
72 -2 0
71 2 -72 0
69 -72 -73 0
-69 72 -73 0
69 72 73 0
-69 -72 73 0
-62 -73 -74 0
62 73 -74 0
-62 73 74 0
62 -73 74 0
-75 -58 0
-75 -48 0
58 48 75 0
76 -11 0
76 75 0
11 -75 -76 0
77 -49 0
77 -76 0
49 76 -77 0
-78 50 0
-78 77 0
-50 -77 78 0
79 -33 0
79 -6 0
33 6 -79 0
80 79 0
80 1 0
-79 -1 -80 0
-81 10 0
-81 80 0
-10 -80 81 0
82 32 0
82 -1 0
-32 1 -82 0
-38 -82 -83 0
38 82 -83 0
-38 82 83 0
38 -82 83 0
-81 83 -84 0
81 -83 -84 0
-81 -83 84 0
81 83 84 0
-85 -78 0
-85 -84 0
78 84 85 0
-74 85 -86 0
74 -85 -86 0
-74 -85 86 0
74 85 86 0
60 86 -87 0
-60 -86 -87 0
60 -86 87 0
-60 86 87 0
55 -87 -88 0
-55 87 -88 0
55 87 88 0
-55 -87 88 0
-14 -61 -89 0
14 61 -89 0
-14 61 89 0
14 -61 89 0
-90 -89 0
-90 -42 0
89 42 90 0
91 20 0
91 -11 0
-20 11 -91 0
92 -40 0
92 -30 0
40 30 -92 0
-93 91 0
-93 92 0
-91 -92 93 0
94 -90 0
94 93 0
90 -93 -94 0
-95 -6 0
-95 -3 0
6 3 95 0
-96 -94 0
-96 95 0
94 -95 96 0
-97 -48 0
-97 -82 0
48 82 97 0
-99 -97 0
-99 -98 0
97 98 99 0
-96 99 -100 0
96 -99 -100 0
-96 -99 100 0
96 99 100 0
-101 22 0
-101 37 0
-22 -37 101 0
-101 98 -102 0
101 -98 -102 0
-101 -98 102 0
101 98 102 0
-103 100 0
-103 -102 0
-100 102 103 0
104 14 0
104 -50 0
-14 50 -104 0
-20 -105 0
20 -105 0
106 105 0
106 -39 0
-105 39 -106 0
107 -101 0
107 92 0
101 -92 -107 0
108 30 0
108 -22 0
-30 22 -108 0
109 108 0
109 -49 0
-108 49 -109 0
110 107 0
110 -109 0
-107 109 -110 0
111 106 0
111 110 0
-106 -110 -111 0
-112 104 0
-112 111 0
-104 -111 112 0
-113 103 0
-113 112 0
-103 -112 113 0
-108 57 -114 0
108 -57 -114 0
-108 -57 114 0
108 57 114 0
-115 97 0
-115 114 0
-97 -114 115 0
23 -48 -116 0
-23 48 -116 0
23 48 116 0
-23 -48 116 0
117 -116 0
117 8 0
116 -8 -117 0
-119 -114 0
-119 118 0
114 -118 119 0
-10 -23 -120 0
10 23 -120 0
-10 23 120 0
10 -23 120 0
121 119 0
121 120 0
-119 -120 -121 0
117 -121 -122 0
-117 121 -122 0
117 121 122 0
-117 -121 122 0
-7 21 -123 0
7 -21 -123 0
-7 -21 123 0
7 21 123 0
-123 -1 -124 0
123 1 -124 0
-123 1 124 0
123 -1 124 0
125 -9 0
125 27 0
9 -27 -125 0
126 50 0
126 -125 0
-50 125 -126 0
-124 126 -127 0
124 -126 -127 0
-124 -126 127 0
124 126 127 0
122 -127 -128 0
-122 127 -128 0
122 127 128 0
-122 -127 128 0
-11 14 -129 0
11 -14 -129 0
-11 -14 129 0
11 14 129 0
130 -128 0
130 129 0
128 -129 -130 0
131 -115 0
131 130 0
115 -130 -131 0
-132 113 0
-132 131 0
-113 -131 132 0
133 88 0
133 -132 0
-88 132 -133 0
-134 -47 0
-134 -133 0
47 133 134 0
17 -78 115 0
12 -97 132 68 0
26 98 0
124 -113 -43 131 0
-69 113 -133 0
57 -34 0
23 71 -92 -129 -3 62 0
78 36 0
33 27 0
134 -122 52 131 0
61 119 -91 0
-129 -10 0
-43 -53 71 124 -70 0
-87 73 0
67 -23 0
-34 -98 11 76 50 92 0
-74 48 -26 -44 0
-22 -23 -102 7 39 0
-37 58 0
42 -89 2 55 -33 -34 0
-99 -86 0
-121 100 63 46 91 0
47 131 95 110 107 -121 0
58 47 27 121 -128 0
-60 -106 -68 0
69 -63 16 -131 0
-62 119 -91 111 114 70 0
7 -93 104 14 0
-22 -121 -13 48 129 0
95 83 -21 -91 0
-128 -15 0
-37 -44 -51 0
38 -121 72 -127 -40 71 0
-46 2 4 27 0
-80 -100 -131 -65 -4 -79 0
-12 76 26 14 0
26 119 0
-116 -13 18 50 109 38 0
117 -122 0
128 -34 70 0
-27 -122 0
83 -21 63 0
-20 127 -12 -73 15 0
-82 -88 48 0
-3 105 59 23 101 -106 0
-39 83 0
-131 55 0
-47 66 49 23 1 -109 0
130 -5 0
-7 -108 -6 -80 0
-64 28 -22 -51 37 0
69 94 0
-18 70 134 73 121 0
24 -105 0
-114 -96 11 0
64 95 0
37 -47 88 -16 112 104 0
-6 -117 -43 0
134 0
